c description: Random 3-CNF over 17 variables and 72 clauses
c generator: CNFgen (0.9.2)
c copyright: (C) 2012-2022 Massimo Lauria <massimo.lauria@uniroma1.it>
c url: https://massimolauria.net/cnfgen
c command line: cnfgen --output CNF_4.28/17_bit_72_398.cnf randkcnf 3 17 72
c
p cnf 17 72
1 -4 -5 0
-11 15 -17 0
1 6 -8 0
-4 -10 -12 0
1 7 -14 0
1 14 16 0
-3 -6 -8 0
-7 -14 17 0
-11 -13 14 0
6 -7 -15 0
4 -6 10 0
-3 10 17 0
7 -9 13 0
6 9 -11 0
5 8 17 0
-3 9 -12 0
-8 -9 15 0
8 -12 13 0
4 10 -15 0
10 11 14 0
4 15 -17 0
11 -14 -15 0
-11 -12 -16 0
6 15 -17 0
2 -4 -7 0
3 12 15 0
9 -11 -12 0
5 6 7 0
-8 -12 14 0
1 9 -11 0
1 7 13 0
-11 -15 -17 0
-8 10 14 0
-5 -11 -14 0
7 -11 -16 0
2 3 -14 0
5 -13 -15 0
4 -8 13 0
-5 6 11 0
4 5 13 0
-5 7 13 0
-11 -12 -15 0
1 -8 -14 0
-6 7 12 0
-4 -5 -12 0
-4 8 -15 0
5 7 12 0
2 3 -5 0
2 -8 -10 0
-1 6 -15 0
2 5 -12 0
-7 15 -17 0
-5 14 -16 0
5 11 -12 0
-4 7 10 0
-3 -6 -11 0
2 8 16 0
6 -10 -16 0
12 13 -17 0
-3 12 13 0
2 7 17 0
-4 -7 16 0
-2 -3 10 0
12 -15 -16 0
-11 12 15 0
-1 2 4 0
-8 9 17 0
-1 -11 12 0
15 16 -17 0
9 12 14 0
-3 11 -16 0
-7 -8 -16 0
